Maximize

y_0 + y_1 + y_2 + y_3 + y_4


Subject To

a0: x_0_0 + x_0_1 + x_0_2 + x_0_3 + x_0_4 <= 1
a1: x_1_0 + x_1_1 + x_1_2 + x_1_3 + x_1_4 <= 1
a2: x_2_0 + x_2_1 + x_2_2 + x_2_3 + x_2_4 <= 1
a3: x_3_0 + x_3_1 + x_3_2 + x_3_3 + x_3_4 <= 1
a4: x_4_0 + x_4_1 + x_4_2 + x_4_3 + x_4_4 <= 1
a5: x_5_0 + x_5_1 + x_5_2 + x_5_3 + x_5_4 <= 1
a6: x_6_0 + x_6_1 + x_6_2 + x_6_3 + x_6_4 <= 1
a7: x_7_0 + x_7_1 + x_7_2 + x_7_3 + x_7_4 <= 1
a8: x_8_0 + x_8_1 + x_8_2 + x_8_3 + x_8_4 <= 1
a9: x_9_0 + x_9_1 + x_9_2 + x_9_3 + x_9_4 <= 1
a10: x_10_0 + x_10_1 + x_10_2 + x_10_3 + x_10_4 <= 1
a11: x_11_0 + x_11_1 + x_11_2 + x_11_3 + x_11_4 <= 1
a12: x_12_0 + x_12_1 + x_12_2 + x_12_3 + x_12_4 <= 1
a13: x_13_0 + x_13_1 + x_13_2 + x_13_3 + x_13_4 <= 1
a14: x_14_0 + x_14_1 + x_14_2 + x_14_3 + x_14_4 <= 1
a15: x_15_0 + x_15_1 + x_15_2 + x_15_3 + x_15_4 <= 1
a16: x_16_0 + x_16_1 + x_16_2 + x_16_3 + x_16_4 <= 1
a17: x_17_0 + x_17_1 + x_17_2 + x_17_3 + x_17_4 <= 1
a18: x_18_0 + x_18_1 + x_18_2 + x_18_3 + x_18_4 <= 1
a19: x_19_0 + x_19_1 + x_19_2 + x_19_3 + x_19_4 <= 1
b0: x_0_2 = 0
b1: x_0_3 = 0
b2: x_0_4 = 0
b3: x_1_0 = 0
b4: x_1_1 = 0
b5: x_1_4 = 0
b6: x_2_1 = 0
b7: x_2_2 = 0
b8: x_2_3 = 0
b9: x_3_0 = 0
b10: x_3_3 = 0
b11: x_3_4 = 0
b12: x_4_0 = 0
b13: x_4_1 = 0
b14: x_4_2 = 0
b15: x_5_2 = 0
b16: x_5_3 = 0
b17: x_5_4 = 0
b18: x_6_0 = 0
b19: x_6_1 = 0
b20: x_6_4 = 0
b21: x_7_1 = 0
b22: x_7_2 = 0
b23: x_7_3 = 0
b24: x_8_0 = 0
b25: x_8_3 = 0
b26: x_8_4 = 0
b27: x_9_0 = 0
b28: x_9_1 = 0
b29: x_9_2 = 0
b30: x_10_3 = 0
b31: x_10_4 = 0
b32: x_11_0 = 0
b33: x_11_4 = 0
b34: x_12_0 = 0
b35: x_12_2 = 0
b36: x_13_1 = 0
b37: x_13_3 = 0
b38: x_13_4 = 0
b39: x_14_0 = 0
b40: x_14_2 = 0
b41: x_14_4 = 0
b42: x_15_0 = 0
b43: x_15_1 = 0
b44: x_15_3 = 0
b45: x_16_1 = 0
b46: x_16_2 = 0
b47: x_16_4 = 0
b48: x_17_2 = 0
b49: x_17_3 = 0
b50: x_17_4 = 0
b51: x_18_4 = 0
b52: x_19_0 = 0
c0: 5 x_0_0 + 4 x_1_0 + 3 x_2_0 + 6 x_3_0 + 7 x_4_0 + 2 x_5_0 + 1 x_6_0 + 8 x_7_0 + 9 x_8_0 + 5 x_9_0 + 6 x_10_0 + 7 x_11_0 + 3 x_12_0 + 4 x_13_0 + 8 x_14_0 + 9 x_15_0 + 1 x_16_0 + 2 x_17_0 + 4 x_18_0 + 6 x_19_0 - 20 y_0 = 0
c1: 5 x_0_1 + 4 x_1_1 + 3 x_2_1 + 6 x_3_1 + 7 x_4_1 + 2 x_5_1 + 1 x_6_1 + 8 x_7_1 + 9 x_8_1 + 5 x_9_1 + 6 x_10_1 + 7 x_11_1 + 3 x_12_1 + 4 x_13_1 + 8 x_14_1 + 9 x_15_1 + 1 x_16_1 + 2 x_17_1 + 4 x_18_1 + 6 x_19_1 - 20 y_1 = 0
c2: 5 x_0_2 + 4 x_1_2 + 3 x_2_2 + 6 x_3_2 + 7 x_4_2 + 2 x_5_2 + 1 x_6_2 + 8 x_7_2 + 9 x_8_2 + 5 x_9_2 + 6 x_10_2 + 7 x_11_2 + 3 x_12_2 + 4 x_13_2 + 8 x_14_2 + 9 x_15_2 + 1 x_16_2 + 2 x_17_2 + 4 x_18_2 + 6 x_19_2 - 20 y_2 = 0
c3: 5 x_0_3 + 4 x_1_3 + 3 x_2_3 + 6 x_3_3 + 7 x_4_3 + 2 x_5_3 + 1 x_6_3 + 8 x_7_3 + 9 x_8_3 + 5 x_9_3 + 6 x_10_3 + 7 x_11_3 + 3 x_12_3 + 4 x_13_3 + 8 x_14_3 + 9 x_15_3 + 1 x_16_3 + 2 x_17_3 + 4 x_18_3 + 6 x_19_3 - 20 y_3 = 0
c4: 5 x_0_4 + 4 x_1_4 + 3 x_2_4 + 6 x_3_4 + 7 x_4_4 + 2 x_5_4 + 1 x_6_4 + 8 x_7_4 + 9 x_8_4 + 5 x_9_4 + 6 x_10_4 + 7 x_11_4 + 3 x_12_4 + 4 x_13_4 + 8 x_14_4 + 9 x_15_4 + 1 x_16_4 + 2 x_17_4 + 4 x_18_4 + 6 x_19_4 - 20 y_4 = 0




Binary

x_0_0 x_0_1 x_0_2 x_0_3 x_0_4 x_1_0 x_1_1 x_1_2 x_1_3 x_1_4 x_2_0 x_2_1 x_2_2 x_2_3 x_2_4 x_3_0 x_3_1 x_3_2 x_3_3 x_3_4 x_4_0 x_4_1 x_4_2 x_4_3 x_4_4 x_5_0 x_5_1 x_5_2 x_5_3 x_5_4 x_6_0 x_6_1 x_6_2 x_6_3 x_6_4 x_7_0 x_7_1 x_7_2 x_7_3 x_7_4 x_8_0 x_8_1 x_8_2 x_8_3 x_8_4 x_9_0 x_9_1 x_9_2 x_9_3 x_9_4 x_10_0 x_10_1 x_10_2 x_10_3 x_10_4 x_11_0 x_11_1 x_11_2 x_11_3 x_11_4 x_12_0 x_12_1 x_12_2 x_12_3 x_12_4 x_13_0 x_13_1 x_13_2 x_13_3 x_13_4 x_14_0 x_14_1 x_14_2 x_14_3 x_14_4 x_15_0 x_15_1 x_15_2 x_15_3 x_15_4 x_16_0 x_16_1 x_16_2 x_16_3 x_16_4 x_17_0 x_17_1 x_17_2 x_17_3 x_17_4 x_18_0 x_18_1 x_18_2 x_18_3 x_18_4 x_19_0 x_19_1 x_19_2 x_19_3 x_19_4 y_0 y_1 y_2 y_3 y_4

 


End
